c ren 1 -> 1
c ren 2 -> 2
c ren 3 -> 3
c ren 4 -> 4
c ren 5 -> 5
c ren 6 -> 6
c ren 7 -> 7
c ren 8 -> 8
c ren 9 -> 9
c ren 10 -> 10
c ren 11 -> 11
c ren 12 -> 12
c ren 13 -> 13
c ren 14 -> 14
c ren 15 -> 15
c ren 16 -> 16
c ren 17 -> 17
c ren 18 -> 18
c ren 19 -> 19
c ren 20 -> 20
c ren 21 -> 21
c ren 22 -> 22
c ren 23 -> 23
c ren 24 -> 24
c ren 25 -> 25
c ren 26 -> 26
c ren 27 -> 27
c ren 28 -> 28
c ren 29 -> 29
c ren 30 -> 30
c ren 31 -> 31
c ren 32 -> 32
c ren 33 -> 33
c ren 34 -> 34
c ren 35 -> 35
c ren 36 -> 36
c ren 37 -> 37
c ren 38 -> 38
c ren 39 -> 39
c ren 40 -> 40
c ren 41 -> 41
c ren 42 -> 42
c ren 43 -> 43
c ren 44 -> 44
c ren 45 -> 45
c ren 46 -> 46
c ren 47 -> 47
c ren 48 -> 48
c ren 49 -> 49
c ren 50 -> 50
c ren 51 -> 51
c ren 52 -> 52
c ren 53 -> 53
c ren 54 -> 54
c ren 55 -> 55
c ren 56 -> 56
c ren 57 -> 57
c ren 58 -> 58
c ren 59 -> 59
c ren 60 -> 60
c ren 61 -> 61
c ren 62 -> 62
c ren 63 -> 63
c ren 64 -> 64
c ren 65 -> 65
c ren 66 -> 66
c ren 67 -> 67
c ren 68 -> 68
c ren 69 -> 69
c ren 70 -> 70
c ren 71 -> 71
c ren 72 -> 72
c ren 73 -> 73
c ren 74 -> 74
c ren 75 -> 75
c ren 76 -> 76
c ren 77 -> 77
c ren 79 -> 78
c ren 82 -> 79
c ren 85 -> 80
c ren 88 -> 81
c ren 91 -> 82
c ren 105 -> 83
c ren 112 -> 84
c ren 119 -> 85
c ren 126 -> 86
c ren 134 -> 87
c ren 141 -> 88
c ren 148 -> 89
c ren 150 -> 90
c ren 151 -> 91
c ren 155 -> 92
c ren 157 -> 93
c ren 158 -> 94
c ren 162 -> 95
c ren 164 -> 96
c ren 165 -> 97
c ren 171 -> 98
c ren 181 -> 99
c ren 190 -> 100
c ren 199 -> 101
c ren 208 -> 102
c ren 217 -> 103
c ren 226 -> 104
c ren 231 -> 105
c ren 240 -> 106
c ren 247 -> 107
c ren 255 -> 108
c ren 266 -> 109
c ren 275 -> 110
c ren 283 -> 111
c ren 291 -> 112
c ren 299 -> 113
c ren 307 -> 114
c ren 315 -> 115
c ren 323 -> 116
c ren 334 -> 117
c ren 346 -> 118
c ren 351 -> 119
c ren 455 -> 120
c ren 464 -> 121
c ren 472 -> 122
c ren 480 -> 123
c ren 488 -> 124
c ren 574 -> 125
c ren 575 -> 126
c ren 576 -> 127
c ren 577 -> 128
c ren 578 -> 129
c ren 579 -> 130
c ren 580 -> 131
c ren 581 -> 132
c ren 582 -> 133
c ren 583 -> 134
c ren 584 -> 135
c ren 585 -> 136
c ren 586 -> 137
c ren 587 -> 138
c ren 588 -> 139
c ren 589 -> 140
c ren 590 -> 141
c ren 591 -> 142
c ren 592 -> 143
c ren 593 -> 144
c ren 594 -> 145
c ren 595 -> 146
c ren 596 -> 147
c ren 597 -> 148
c ren 598 -> 149
c ren 599 -> 150
c ren 600 -> 151
c ren 601 -> 152
c ren 602 -> 153
c ren 603 -> 154
c ren 604 -> 155
c ren 605 -> 156
p cnf 156 579
a 1 2 3 4 5 6 7 8 9 10 11 12 13 14 15 16 17 18 19 20 21 22 23 24 25 26 27 28 29 30 31 32 33 34 35 36 37 38 39 40 41 42 43 44 45 46 47 48 49 50 51 52 53 54 55 56 57 58 59 60 61 62 63 64 65 66 67 68 69 0
d 70 37 0
d 71 38 0
d 72 37 38 39 40 41 42 43 44 45 46 47 48 49 50 51 52 53 54 55 56 57 58 59 60 61 0
d 73 37 38 41 42 43 44 45 46 47 48 49 50 51 52 53 54 55 56 57 58 59 62 63 64 65 0
d 74 41 42 43 44 45 46 47 48 49 50 51 52 53 54 55 56 57 58 59 0
d 75 41 42 43 44 45 46 47 48 49 50 51 52 53 54 55 56 57 58 59 0
d 76 37 38 41 42 43 44 45 46 47 48 49 50 51 52 53 54 55 56 57 58 59 66 67 68 69 0
d 77 37 38 39 40 41 42 43 44 45 46 47 48 49 50 51 52 53 54 55 56 57 58 59 60 61 62 63 64 65 66 67 68 69 0
e 78 79 80 81 82 83 84 85 86 87 88 89 90 91 92 93 94 95 96 97 98 99 100 101 102 103 104 105 106 107 108 109 110 111 112 113 114 115 116 117 118 119 120 121 122 123 124 125 126 127 128 129 130 131 132 133 134 135 136 137 138 139 140 141 142 143 144 145 146 147 148 149 150 151 152 153 154 155 156 0
-1 -78 0
2 -78 0
-4 -79 0
6 -79 0
-8 -80 0
10 -80 0
-12 -81 0
14 -81 0
-16 -82 0
18 -82 0
-22 25 -83 -98 104 0
20 -22 -83 0
-24 -83 90 0
-28 -83 93 0
-32 -83 96 0
-78 -83 0
-79 -83 0
-80 -83 0
-81 -83 0
-82 -83 0
20 -22 23 89 0
24 -26 91 0
28 -30 94 0
32 -34 97 0
42 -83 -84 -131 0
-3 -84 0
2 -84 0
34 78 80 83 85 87 88 89 92 95 98 0
-2 5 43 -83 -132 0
44 -83 -85 -133 0
-7 -85 0
6 -85 0
-35 78 79 83 86 87 88 89 92 95 98 0
-6 9 45 -83 -134 0
46 -83 -86 -135 0
-11 -86 0
10 -86 0
-10 13 47 -83 -136 0
81 83 -102 0
-14 17 -83 -98 102 0
49 81 83 -138 0
17 -81 -98 102 0
-15 -87 0
13 47 -80 -136 0
15 -81 87 0
82 83 -103 0
-18 21 -83 -98 103 0
51 82 83 -140 0
21 -82 -98 103 0
9 45 -79 -134 0
-19 -88 0
9 -79 -98 100 0
19 -82 88 0
-20 -24 -28 -32 78 79 80 81 82 83 0
-22 25 -53 -83 -142 0
20 -22 25 -53 -142 0
-22 23 -83 89 0
5 -78 -98 99 0
-23 -89 0
-20 26 30 34 78 79 80 81 82 83 0
20 -22 25 -98 104 0
83 -90 0
-24 -91 0
-83 -91 0
-20 -24 30 -32 78 79 80 81 82 83 0
-55 -90 -105 -144 0
90 91 -92 0
-27 -92 0
-55 -91 -105 -144 0
55 90 91 -144 0
-91 -98 -105 -108 0
83 -93 0
-28 -94 0
-83 -94 0
-20 26 -28 -32 78 79 80 81 82 83 0
-57 -93 -106 -146 0
93 94 -95 0
-31 -95 0
-57 -94 -106 -146 0
57 93 94 -146 0
-94 -98 -106 -108 0
83 -96 0
-32 -97 0
-83 -97 0
30 -94 0
-34 36 -59 -96 -148 0
92 95 96 97 98 99 100 101 102 103 104 108 0
78 79 83 86 87 88 89 92 95 97 98 0
36 -97 -107 -108 0
-87 -98 0
-88 -98 0
-89 -98 0
-92 -98 0
-95 -98 0
36 -59 -97 -148 0
93 94 98 99 100 101 102 103 104 105 107 108 0
34 90 91 93 94 99 100 101 102 103 104 108 0
90 91 98 99 100 101 102 103 104 106 107 108 0
-83 -84 -98 0
-36 92 98 99 100 101 102 103 104 106 108 0
-36 95 98 99 100 101 102 103 104 105 108 0
-36 92 95 98 99 100 101 102 103 104 108 0
2 -43 -132 0
5 -83 -84 99 0
-42 78 83 -131 0
90 91 93 94 98 99 100 101 102 103 104 107 108 0
80 83 84 85 87 88 89 92 95 97 98 0
78 83 -99 0
36 -97 -98 -108 0
85 98 -100 0
35 -97 107 0
-83 -85 -98 0
22 26 30 -32 78 79 80 81 82 83 0
22 26 -28 -32 78 79 80 81 82 83 0
6 -45 -134 0
9 -83 -85 100 0
-44 79 83 -133 0
22 26 30 34 78 79 80 81 82 83 0
84 98 -99 0
79 83 -100 0
-83 -86 -98 0
10 -47 -136 0
13 -83 -86 101 0
-46 80 83 -135 0
10 -101 0
80 83 -101 0
48 87 98 -137 0
-48 -98 -137 0
2 -99 0
-48 -87 -137 0
17 -83 -87 102 0
36 -96 -107 -108 0
-14 15 -83 87 0
13 -80 -98 101 0
17 -49 -81 -138 0
-35 78 80 83 85 87 88 89 92 95 98 0
-14 17 -49 -83 -138 0
87 98 -102 0
50 88 98 -139 0
-50 -98 -139 0
-35 79 83 84 86 87 88 89 92 95 98 0
-50 -88 -139 0
21 -83 -88 103 0
79 80 83 84 87 88 89 92 95 97 98 0
-18 19 -83 88 0
5 43 -78 -132 0
21 -51 -82 -140 0
34 84 85 86 87 88 89 92 95 98 0
-18 21 -51 -83 -140 0
88 98 -103 0
52 89 98 -141 0
-52 -98 -141 0
78 79 80 83 87 88 89 92 95 97 98 0
-52 -89 -141 0
-20 83 -89 0
78 83 85 86 87 88 89 92 95 97 98 0
-20 83 -104 0
22 -24 -28 34 78 79 80 81 82 83 0
-35 80 83 84 85 87 88 89 92 95 98 0
25 -89 104 0
89 98 -104 0
-29 -105 0
26 -105 0
90 91 95 98 99 100 101 102 103 104 107 108 0
-90 -98 -105 -108 0
92 98 99 100 101 102 103 104 106 107 108 0
-36 90 91 93 94 99 100 101 102 103 104 108 0
-33 -106 0
30 -106 0
92 93 94 98 99 100 101 102 103 104 107 108 0
-93 -98 -106 -108 0
-98 -107 0
34 78 79 83 86 87 88 89 92 95 98 0
-34 36 70 71 117 120 -125 0
-34 36 -96 -98 -108 0
96 97 99 100 101 102 103 104 105 106 108 0
-76 -112 121 -122 -125 0
90 91 93 94 96 97 99 100 101 102 103 104 108 0
-36 93 94 99 100 101 102 103 104 105 108 0
-99 -108 0
-100 -108 0
-101 -108 0
-102 -108 0
-103 -108 0
-104 -108 0
-93 -95 -106 -108 0
-36 90 91 95 98 99 100 101 102 103 104 108 0
-58 -98 -147 0
96 97 -107 0
1 -2 3 -108 109 0
-1 83 -109 0
-2 5 -83 -98 109 0
1 -2 -98 -108 109 0
-3 98 -109 0
-2 -83 -98 -108 109 0
-2 3 -83 -108 109 0
-5 108 -109 0
93 94 96 97 99 100 101 102 103 104 105 108 0
2 -109 0
1 -2 3 5 109 0
1 -2 5 -98 109 0
-2 3 5 -83 109 0
34 93 94 99 100 101 102 103 104 105 108 0
4 -6 7 -108 110 0
-4 83 -110 0
-6 9 -83 -98 110 0
4 -6 -98 -108 110 0
-7 98 -110 0
-6 -83 -98 -108 110 0
-6 7 -83 -108 110 0
-9 108 -110 0
-36 90 91 99 100 101 102 103 104 106 108 0
4 -6 7 9 110 0
4 -6 9 -98 110 0
-6 7 9 -83 110 0
6 -110 0
92 96 97 98 99 100 101 102 103 104 106 108 0
8 -10 11 -108 111 0
-8 83 -111 0
-10 13 -83 -98 111 0
8 -10 -98 -108 111 0
-11 98 -111 0
-10 -83 -98 -108 111 0
-10 11 -83 -108 111 0
-13 108 -111 0
8 -10 11 13 111 0
8 -10 13 -98 111 0
-10 11 13 -83 111 0
10 -111 0
55 105 -144 0
12 -14 15 -108 112 0
-12 83 -112 0
-14 17 -83 -98 112 0
12 -14 -98 -108 112 0
-15 98 -112 0
-14 -83 -98 -108 112 0
-14 15 -83 -108 112 0
-17 108 -112 0
98 99 100 101 102 103 104 105 106 107 108 0
12 -14 15 17 112 0
12 -14 17 -98 112 0
-14 15 17 -83 112 0
14 -112 0
-90 -92 -105 -108 0
16 -18 19 -108 113 0
-16 83 -113 0
-18 21 -83 -98 113 0
16 -18 -98 -108 113 0
-19 98 -113 0
-18 -83 -98 -108 113 0
-18 19 -83 -108 113 0
-21 108 -113 0
95 96 97 98 99 100 101 102 103 104 105 108 0
16 -18 19 21 113 0
16 -18 21 -98 113 0
-18 19 21 -83 113 0
18 -113 0
90 91 95 96 97 98 99 100 101 102 103 104 108 0
20 -22 23 -108 114 0
-20 83 -114 0
-22 25 -83 -98 114 0
20 -22 -98 -108 114 0
-23 98 -114 0
-22 -83 -98 -108 114 0
-22 23 -83 -108 114 0
-25 108 -114 0
20 -22 23 25 114 0
20 -22 25 -98 114 0
-22 23 25 -83 114 0
22 -114 0
-36 92 93 94 98 99 100 101 102 103 104 108 0
24 -26 27 -108 115 0
-24 83 -115 0
-26 29 -83 -98 115 0
24 -26 -98 -108 115 0
-27 98 -115 0
-26 -83 -98 -108 115 0
-26 27 -83 -108 115 0
-29 108 -115 0
95 98 99 100 101 102 103 104 105 107 108 0
24 -26 27 29 115 0
24 -26 29 -98 115 0
-26 27 29 -83 115 0
26 -115 0
34 90 91 99 100 101 102 103 104 106 108 0
28 -30 31 -108 116 0
-28 83 -116 0
-30 33 -83 -98 116 0
28 -30 -98 -108 116 0
-31 98 -116 0
-30 -83 -98 -108 116 0
-30 31 -83 -108 116 0
-33 108 -116 0
28 -30 31 33 116 0
28 -30 33 -98 116 0
-30 31 33 -83 116 0
30 -116 0
32 -34 35 -108 109 117 0
-32 83 110 111 112 113 114 115 116 -117 0
-34 36 -83 -98 109 117 0
32 -34 -98 -108 109 117 0
-35 98 110 111 112 113 114 115 116 -117 0
-34 -83 -98 -108 109 117 0
-34 35 -83 -108 109 117 0
-36 108 110 111 112 113 114 115 116 -117 0
-34 35 36 -83 109 117 0
34 110 111 112 113 114 115 116 -117 0
32 -34 35 36 109 117 0
32 -34 36 -98 109 117 0
109 -110 117 0
109 -111 117 0
109 -112 117 0
109 -113 117 0
109 -114 117 0
109 -115 117 0
-109 -117 0
109 -116 117 0
110 -111 119 0
111 -112 -119 0
-73 -76 -110 121 -125 0
76 110 111 112 113 -125 0
73 110 112 113 122 -125 0
-76 -111 121 -122 -125 0
112 113 -114 -118 0
111 113 -114 -119 0
110 111 -112 118 0
110 111 -121 -125 0
112 113 -115 -118 0
110 112 -113 -115 119 0
-110 -118 0
-111 -118 0
110 112 114 -115 119 0
110 112 114 116 119 0
111 115 -116 -119 0
110 112 -113 116 119 0
-110 -119 0
110 111 -113 118 0
72 -73 76 119 121 -125 0
1 -2 78 0
4 -6 79 0
8 -10 80 0
12 -14 81 0
16 -18 82 0
22 -24 30 -32 78 79 80 81 82 83 0
-20 26 30 -32 78 79 80 81 82 83 0
26 -91 0
-78 -84 -98 0
-2 3 84 0
84 85 86 87 88 89 92 95 96 97 98 0
-79 -85 -98 0
-6 7 85 0
-80 -86 -98 0
-10 11 86 0
86 98 -101 0
9 -79 -85 100 0
17 -81 -87 102 0
14 -87 0
5 -78 -84 99 0
21 -82 -88 103 0
18 -88 0
22 26 -28 34 78 79 80 81 82 83 0
22 -24 30 34 78 79 80 81 82 83 0
-20 53 83 -142 0
-20 -24 -28 34 78 79 80 81 82 83 0
22 -89 0
-20 -24 30 34 78 79 80 81 82 83 0
24 -26 -90 0
27 -91 92 0
26 -92 0
-20 26 -28 34 78 79 80 81 82 83 0
28 -30 -93 0
31 -94 95 0
30 -95 0
34 -97 0
32 -34 -96 0
34 78 83 85 86 87 88 89 92 95 98 0
-46 86 -135 0
1 -2 3 75 120 0
-1 -70 -120 0
-2 5 70 71 120 0
1 -2 71 75 120 0
-3 -71 -120 0
-2 70 71 75 120 0
-2 3 70 75 120 0
-5 -75 -120 0
2 -120 0
1 -2 3 5 120 0
1 -2 5 71 120 0
-2 3 5 70 120 0
4 -6 7 75 121 0
-4 -70 -121 0
-6 9 70 71 121 0
4 -6 71 75 121 0
-7 -71 -121 0
-6 70 71 75 121 0
-6 7 70 75 121 0
-9 -75 -121 0
4 -6 7 9 121 0
4 -6 9 71 121 0
-6 7 9 70 121 0
6 -121 0
8 -10 11 75 122 0
-8 -70 -122 0
-10 13 70 71 122 0
8 -10 71 75 122 0
-11 -71 -122 0
-10 70 71 75 122 0
-10 11 70 75 122 0
-13 -75 -122 0
8 -10 11 13 122 0
8 -10 13 71 122 0
-10 11 13 70 122 0
10 -122 0
20 -22 23 75 123 0
-20 -70 -123 0
-22 25 70 71 123 0
20 -22 71 75 123 0
-23 -71 -123 0
-22 70 71 75 123 0
-22 23 70 75 123 0
-25 -75 -123 0
20 -22 23 25 123 0
20 -22 25 71 123 0
-22 23 25 70 123 0
22 -123 0
28 -30 31 75 124 0
-28 -70 -124 0
-30 33 70 71 124 0
28 -30 71 75 124 0
-31 -71 -124 0
-30 70 71 75 124 0
-30 31 70 75 124 0
-33 -75 -124 0
28 -30 31 33 124 0
28 -30 33 71 124 0
-30 31 33 70 124 0
30 -124 0
-32 -70 -72 -73 -76 -117 121 122 123 124 -125 0
-34 35 70 75 117 120 -125 0
-35 -71 -72 -73 -76 -117 121 122 123 124 -125 0
-34 35 36 70 117 120 -125 0
-36 -72 -73 -75 -76 -117 121 122 123 124 -125 0
32 -34 35 36 117 120 0
32 -34 71 75 117 120 -125 0
34 -72 -73 -76 -117 121 122 123 124 -125 0
32 -34 35 75 117 120 -125 0
72 117 120 -125 0
73 117 120 -125 0
76 117 120 -125 0
117 120 -123 -125 0
117 120 -122 -125 0
-76 -110 121 -122 -125 0
76 -77 118 121 122 -125 0
-76 -119 122 -123 -125 0
-73 -76 -118 -123 -125 0
73 -77 118 121 122 -125 0
-77 118 121 122 123 -125 0
77 -118 -125 0
72 -73 119 121 123 -125 0
-118 -121 -125 0
-118 -122 -125 0
-73 -76 -111 121 -125 0
-72 -119 122 -124 -125 0
73 -119 122 -125 0
119 121 -122 -125 0
-5 -43 -132 0
-9 -45 -134 0
-13 -47 -136 0
34 80 83 84 85 87 88 89 92 95 98 0
-35 78 83 85 86 87 88 89 92 95 98 0
14 -102 0
-17 49 -138 0
34 79 83 84 86 87 88 89 92 95 98 0
18 -103 0
-21 51 -140 0
-35 84 85 86 87 88 89 92 95 98 0
34 79 80 83 84 87 88 89 92 95 98 0
22 -104 0
-25 53 -142 0
-26 29 105 0
-34 70 71 75 117 120 -125 0
-30 33 106 0
-36 59 -148 0
32 -34 36 71 117 120 -125 0
34 -107 0
34 59 -148 0
-36 99 100 101 102 103 104 105 106 108 0
-73 -76 -112 121 -125 0
-56 -98 -145 0
-74 108 -125 0
74 -108 -125 0
-117 -120 -125 0
117 120 -121 -125 0
117 120 -124 -125 0
-73 119 121 123 124 -125 0
-73 76 119 121 124 -125 0
-119 -121 -125 0
-37 -83 -126 0
37 83 -126 0
-38 -98 -127 0
38 98 -127 0
-24 -39 -128 0
24 39 -128 0
-27 -40 -129 0
27 40 -129 0
-41 98 -130 0
41 -98 -130 0
78 80 83 85 87 88 89 92 95 97 98 0
-35 78 79 80 83 87 88 89 92 95 98 0
42 -78 -84 -131 0
-5 -99 0
-43 78 83 -132 0
-2 5 -83 -98 99 0
-42 84 -131 0
-44 85 -133 0
44 -79 -85 -133 0
-9 -100 0
-45 79 83 -134 0
-6 9 -83 -98 100 0
-35 79 80 83 84 87 88 89 92 95 98 0
6 -100 0
46 -80 -86 -135 0
-13 -101 0
-47 80 83 -136 0
-10 13 -83 -98 101 0
34 78 79 80 83 87 88 89 92 95 98 0
13 -80 -86 101 0
81 83 -87 0
14 49 -138 0
-17 -102 0
-35 -107 0
82 83 -88 0
18 51 -140 0
-21 -103 0
79 83 84 86 87 88 89 92 95 97 98 0
22 -24 -28 -32 78 79 80 81 82 83 0
22 53 -142 0
-25 -104 0
-91 -92 -105 -108 0
-54 -92 -143 0
54 92 98 -143 0
-26 27 -90 92 0
92 93 94 96 97 98 99 100 101 102 103 104 108 0
90 91 96 97 99 100 101 102 103 104 106 108 0
-94 -95 -106 -108 0
-56 -95 -145 0
56 95 98 -145 0
-54 -98 -143 0
-30 31 -93 95 0
59 96 97 -148 0
-58 -107 -147 0
58 98 107 -147 0
57 106 -146 0
-34 35 -96 107 0
34 99 100 101 102 103 104 105 106 108 0
92 95 98 99 100 101 102 103 104 107 108 0
-29 -60 -149 0
29 60 -149 0
-26 -61 -150 0
26 61 -150 0
-12 -62 -151 0
12 62 -151 0
-15 -63 -152 0
15 63 -152 0
-17 -64 -153 0
17 64 -153 0
-14 -65 -154 0
14 65 -154 0
-16 -66 -155 0
16 66 -155 0
-19 -67 -156 0
19 67 -156 0
18 -21 -68 69 125 126 127 128 129 130 131 132 133 134 135 136 137 138 139 140 141 142 143 144 145 146 147 148 149 150 151 152 153 154 155 156 0
-18 21 68 -69 125 126 127 128 129 130 131 132 133 134 135 136 137 138 139 140 141 142 143 144 145 146 147 148 149 150 151 152 153 154 155 156 0
-18 -21 -68 -69 125 126 127 128 129 130 131 132 133 134 135 136 137 138 139 140 141 142 143 144 145 146 147 148 149 150 151 152 153 154 155 156 0
110 111 114 115 118 0
-73 -76 -113 121 -125 0
18 21 68 69 125 126 127 128 129 130 131 132 133 134 135 136 137 138 139 140 141 142 143 144 145 146 147 148 149 150 151 152 153 154 155 156 0
-76 -113 121 -122 -125 0
